sifdecoder -A pc64.lnx.gfo -st   STEENBRD

 Problem name: STEENBRD

 Double precision version will be formed

 The objective function uses 1 nonlinear group
 
 There are 108 linear equality constraints
 
 There are 468 variables bounded only from below 
 
 
 File successfully decoded
 CUTEST: tools (double precision version) compiled successfully
 CUTEst: ipopt (double precision version) compiled successfully

******************************************************************************
This program contains Ipopt, a library for large-scale nonlinear optimization.
 Ipopt is released as open source code under the Eclipse Public License (EPL).
         For more information visit http://projects.coin-or.org/Ipopt
******************************************************************************

This is Ipopt version trunk, running with linear solver ma57.

Number of nonzeros in equality constraint Jacobian...:      864
Number of nonzeros in inequality constraint Jacobian.:        0
Number of nonzeros in Lagrangian Hessian.............:     3276

Reallocating memory for MA57: lfact (161297)
Total number of variables............................:      468
                     variables with only lower bounds:      468
                variables with lower and upper bounds:        0
                     variables with only upper bounds:        0
Total number of equality constraints.................:      108
Total number of inequality constraints...............:        0
        inequality constraints with only lower bounds:        0
   inequality constraints with lower and upper bounds:        0
        inequality constraints with only upper bounds:        0

iter    objective    inf_pr   inf_du lg(mu)  ||d||  lg(rg) alpha_du alpha_pr  ls
   0  2.5215002e+03 2.00e+03 1.01e+02  -1.0 0.00e+00    -  0.00e+00 0.00e+00   0
   1  2.5206509e+03 2.00e+03 1.01e+02  -1.0 5.01e+02    -  1.98e-04 1.98e-04h  1
   2  3.1204223e+03 2.00e+03 1.01e+02  -1.0 1.99e+03    -  9.96e-05 9.04e-04h  1
   3  5.1839306e+03 1.99e+03 1.01e+02  -1.0 2.01e+03    -  8.24e-04 2.16e-03h  1
   4  1.1725145e+04 1.98e+03 1.01e+02  -1.0 2.00e+03    -  1.36e-03 6.42e-03h  1
   5  3.0233642e+04 1.94e+03 1.00e+02  -1.0 1.98e+03    -  6.75e-03 1.82e-02h  1
   6  6.3474258e+04 1.87e+03 9.87e+01  -1.0 1.95e+03    -  1.12e-02 3.89e-02h  1
   7  7.1865196e+04 1.85e+03 9.77e+01  -1.0 3.36e+03    -  2.39e-02 1.25e-02h  1
   8  9.7206854e+04 1.78e+03 9.52e+01  -1.0 2.16e+03    -  3.35e-02 3.58e-02h  1
   9  1.4885908e+05 1.65e+03 9.09e+01  -1.0 1.81e+03    -  4.95e-02 7.50e-02h  1
iter    objective    inf_pr   inf_du lg(mu)  ||d||  lg(rg) alpha_du alpha_pr  ls
  10  2.2073909e+05 1.44e+03 8.41e+01  -1.0 1.65e+03    -  1.34e-01 1.22e-01h  1
  11  4.5748524e+05 6.11e+02 6.73e+01  -1.0 1.45e+03    -  1.74e-02 5.77e-01h  1
  12  4.1038468e+05 5.86e+02 6.47e+01  -1.0 9.00e+03    -  8.11e-03 4.12e-02f  1
  13  3.8247829e+05 5.75e+02 6.35e+01  -1.0 1.38e+04    -  3.16e-02 1.90e-02f  1
  14  3.5798534e+05 5.68e+02 6.27e+01  -1.0 2.84e+04    -  2.34e-04 1.22e-02f  1
  15  3.5791432e+05 5.68e+02 6.27e+01  -1.0 1.66e+04    -  8.58e-03 2.12e-04f  1
  16  3.3878707e+05 3.60e+02 4.63e+01  -1.0 5.95e+02    -  7.36e-02 3.65e-01f  1
  17  3.1296185e+05 2.87e+02 3.84e+01  -1.0 1.16e+03    -  1.11e-01 2.03e-01f  1
  18  2.9037042e+05 2.37e+02 3.26e+01  -1.0 1.23e+03    -  2.53e-01 1.73e-01f  1
  19  2.0583904e+05 6.21e-09 1.50e+01  -1.0 4.61e+02    -  1.16e-02 1.00e+00f  1
iter    objective    inf_pr   inf_du lg(mu)  ||d||  lg(rg) alpha_du alpha_pr  ls
  20  1.9978084e+05 6.02e-09 1.44e+01  -1.0 2.14e+03    -  8.01e-02 4.10e-02f  1
  21  1.5969204e+05 4.49e-09 1.01e+01  -1.0 1.98e+03    -  2.33e-01 3.75e-01f  1
  22  1.2909175e+05 3.52e-09 7.34e+00  -1.0 8.76e+02  -4.0 3.53e-02 3.38e-01f  1
  23  1.1582243e+05 3.42e-09 6.81e+00  -1.0 1.53e+04    -  1.05e-02 7.56e-02f  1
  24  1.0948289e+05 3.35e-09 6.57e+00  -1.0 7.15e+03  -4.5 4.80e-03 3.65e-02f  1
  25  1.0885177e+05 3.35e-09 6.53e+00  -1.0 5.97e+03    -  2.33e-01 5.97e-03f  1
  26  1.0073818e+05 3.25e-09 6.09e+00  -1.0 7.81e+03    -  6.79e-03 6.51e-02f  1
  27  8.1447152e+04 3.25e-09 4.90e+00  -1.0 1.12e+06    -  2.23e-04 2.34e-03f  1
  28  8.1263929e+04 3.25e-09 5.02e+00  -1.0 1.51e+04  -5.0 4.09e-01 1.20e-03f  1
  29  6.5323847e+04 3.15e-09 3.96e+00  -1.0 8.38e+01  -1.8 3.34e-01 1.00e+00f  1
iter    objective    inf_pr   inf_du lg(mu)  ||d||  lg(rg) alpha_du alpha_pr  ls
  30  5.5883018e+04 2.15e-09 1.71e+00  -1.0 1.45e+03    -  9.81e-02 3.21e-01f  1
  31  3.5657752e+04 1.22e-09 1.16e+00  -1.0 1.59e+03    -  4.67e-01 1.00e+00f  1
  32  2.4371620e+04 3.60e-10 5.56e-01  -1.0 2.10e+03    -  7.57e-01 1.00e+00f  1
  33  1.8191333e+04 1.61e-10 1.91e-01  -1.7 2.64e+03    -  6.25e-01 8.95e-01f  1
  34  1.5187179e+04 8.92e-11 8.15e-02  -2.5 3.25e+03    -  7.84e-01 6.80e-01f  1
  35  1.3247133e+04 5.61e-11 6.33e-02  -2.5 3.66e+03    -  9.88e-01 6.63e-01f  1
  36  1.3242122e+04 5.70e-11 4.38e-02  -2.5 1.66e-02   0.4 1.00e+00 1.00e+00f  1
  37  1.3195530e+04 5.50e-11 4.26e-02  -2.5 9.58e+03    -  5.49e-04 1.59e-02f  1
  38  1.2427354e+04 2.56e-11 3.34e-02  -2.5 3.89e+03    -  1.62e-01 3.41e-01f  1
  39  1.2422540e+04 1.31e-10 3.33e-01  -2.5 3.87e-01  -0.1 1.00e+00 1.00e+00f  1
iter    objective    inf_pr   inf_du lg(mu)  ||d||  lg(rg) alpha_du alpha_pr  ls
  40  1.2414486e+04 1.24e-10 2.15e-02  -2.5 7.48e-02  -0.5 1.00e+00 1.00e+00f  1
  41  1.2394789e+04 3.82e-11 5.63e-02  -3.8 2.24e-01  -1.0 9.25e-01 7.07e-01f  1
  42  1.2381550e+04 2.45e-11 2.15e-02  -3.8 6.71e-01  -1.5 8.65e-01 4.69e-01f  1
  43  1.2374569e+04 2.02e-11 2.15e-02  -3.8 2.01e+00  -2.0 6.75e-01 2.85e-01f  1
  44  1.2368391e+04 1.74e-11 2.14e-02  -3.8 5.99e+00  -2.4 9.30e-01 2.15e-01f  1
  45  1.2366802e+04 1.72e-11 2.14e-02  -3.8 6.88e+01  -2.9 3.24e-02 1.71e-02f  1
  46  1.2364074e+04 1.60e-11 3.05e-02  -3.8 6.71e+00  -2.5 7.70e-01 1.11e-01f  1
  47  1.2358487e+04 1.01e-11 2.13e-02  -3.8 2.53e+00  -2.1 1.00e+00 5.48e-01f  1
  48  1.2354493e+04 4.78e-12 2.13e-02  -3.8 9.48e-01  -1.6 1.00e+00 1.00e+00f  1
  49  1.2353503e+04 3.51e-12 2.13e-02  -3.8 3.55e-01  -1.2 1.00e+00 1.00e+00f  1
iter    objective    inf_pr   inf_du lg(mu)  ||d||  lg(rg) alpha_du alpha_pr  ls
  50  1.2352999e+04 2.92e-12 2.13e-02  -3.8 1.51e+00  -1.7 1.00e+00 1.42e-01f  1
  51  1.2350504e+04 2.34e-12 2.12e-02  -3.8 3.18e+00  -2.2 1.00e+00 3.11e-01f  2
  52  1.2349313e+04 2.09e-12 2.12e-02  -3.8 1.20e+00  -1.8 1.00e+00 3.81e-01f  2
  53  1.2349162e+04 2.72e-12 3.31e-02  -3.8 1.35e+01  -2.2 9.03e-02 9.43e-03f  2
  54  1.2329323e+04 2.18e-12 7.82e-02  -3.8 1.06e+01  -2.7 1.00e+00 7.75e-01f  1
  55  1.2328074e+04 2.21e-12 7.31e-02  -3.8 3.96e+00  -2.3 1.00e+00 1.13e-01f  2
  56  1.2327560e+04 1.93e-12 7.31e-02  -3.8 5.21e+01  -2.8 1.34e-01 9.40e-03f  2
  57  1.2324532e+04 1.89e-12 5.18e-02  -3.8 4.45e+00  -2.3 1.00e+00 2.75e-01f  2
  58  1.2324233e+04 1.95e-12 6.02e-02  -3.8 7.28e+01  -2.8 1.80e-01 5.14e-03f  2
  59  1.2307629e+04 1.48e-12 4.58e-02  -3.8 3.76e+01  -3.3 2.40e-01 1.94e-01f  1
iter    objective    inf_pr   inf_du lg(mu)  ||d||  lg(rg) alpha_du alpha_pr  ls
  60  1.2283684e+04 7.82e-12 2.02e-01  -3.8 1.46e+01  -2.9 3.06e-01 7.46e-01f  1
  61  1.2233706e+04 4.00e-12 3.67e-02  -3.8 4.10e+01  -3.3 1.00e+00 5.56e-01f  1
  62  1.2068291e+04 5.00e-12 3.61e-02  -3.8 1.05e+02  -3.8 4.22e-01 7.24e-01f  1
  63  1.1991603e+04 4.39e-12 2.53e-02  -3.8 2.21e+02  -4.3 5.00e-01 1.61e-01f  1
  64  1.1965108e+04 3.90e-12 2.30e-02  -3.8 1.01e+02  -3.9 1.00e+00 1.35e-01f  1
  65  1.1656460e+04 7.11e-12 1.31e-02  -3.8 2.30e+02  -4.3 6.49e-01 7.41e-01f  1
  66  1.1602343e+04 6.51e-12 1.24e-02  -3.8 3.96e+02  -4.8 2.41e-01 7.90e-02f  1
  67  1.1564356e+04 1.03e-11 1.16e-02  -3.8 2.11e+02  -4.4 1.32e-01 1.13e-01f  1
  68  1.1001392e+04 2.09e-11 7.03e-03  -3.8 4.07e+02  -4.9 7.46e-01 1.00e+00f  1
  69  1.1000452e+04 2.08e-11 4.47e-02  -3.8 3.96e+03  -4.4 4.83e-01 2.15e-03f  2
iter    objective    inf_pr   inf_du lg(mu)  ||d||  lg(rg) alpha_du alpha_pr  ls
  70  1.1000325e+04 1.79e-12 7.03e-03  -3.8 1.43e-01  -1.3 9.60e-01 6.82e-01f  1
  71  1.0999848e+04 3.79e-12 7.03e-03  -3.8 4.29e-01  -1.8 1.00e+00 1.00e+00f  1
  72  1.0998420e+04 1.67e-12 7.02e-03  -3.8 1.28e+00  -2.3 9.85e-01 1.00e+00f  1
  73  1.0994237e+04 7.58e-13 6.99e-03  -3.8 3.84e+00  -2.7 1.00e+00 1.00e+00f  1
  74  1.0982022e+04 6.61e-13 6.91e-03  -3.8 1.14e+01  -3.2 1.00e+00 1.00e+00f  1
  75  1.0972322e+04 6.58e-13 6.85e-03  -3.8 3.30e+01  -3.7 1.00e+00 2.70e-01f  2
  76  1.0968798e+04 9.56e-13 6.83e-03  -3.8 1.25e+01  -3.3 1.00e+00 2.48e-01f  2
  77  1.0965760e+04 1.78e-12 1.38e-01  -3.8 4.72e+00  -2.8 1.00e+00 5.26e-01f  1
  78  1.0965736e+04 1.56e-12 1.39e-01  -3.8 4.80e+02  -2.4 4.23e-03 8.17e-05f  2
  79  1.0964658e+04 2.39e-12 1.14e-01  -3.8 5.30e+00  -2.9 1.00e+00 1.77e-01f  2
iter    objective    inf_pr   inf_du lg(mu)  ||d||  lg(rg) alpha_du alpha_pr  ls
  80  1.0948283e+04 5.57e-12 8.81e-03  -3.8 1.57e+01  -3.4 1.00e+00 1.00e+00f  1
  81  1.0902947e+04 6.51e-12 6.39e-03  -3.8 4.49e+01  -3.8 1.00e+00 1.00e+00f  1
  82  1.0789449e+04 1.39e-12 5.64e-03  -3.8 1.18e+02  -4.3 1.00e+00 1.00e+00f  1
  83  1.0559523e+04 2.50e-12 4.37e-03  -3.8 2.64e+02  -4.8 1.00e+00 1.00e+00f  1
  84  1.0486825e+04 4.78e-13 4.02e-03  -3.8 9.49e+01  -4.4 1.00e+00 1.00e+00f  1
  85  1.0467342e+04 6.36e-13 3.95e-03  -3.8 2.51e+02  -4.9 1.00e+00 1.08e-01f  2
  86  1.0461496e+04 5.63e-13 3.93e-03  -3.8 1.32e+02  -4.4 1.00e+00 7.57e-02f  2
  87  1.0458017e+04 6.34e-13 3.93e-03  -3.8 4.42e+01  -4.0 1.00e+00 1.13e-01f  2
  88  1.0455038e+04 5.19e-13 3.92e-03  -3.8 1.46e+01  -3.6 1.00e+00 2.59e-01f  2
  89  1.0452525e+04 6.82e-13 1.54e-02  -3.8 4.32e+01  -4.1 1.00e+00 7.53e-02f  2
iter    objective    inf_pr   inf_du lg(mu)  ||d||  lg(rg) alpha_du alpha_pr  ls
  90  1.0368737e+04 9.88e-13 3.68e-03  -3.8 1.24e+02  -4.5 1.00e+00 1.00e+00f  1
  91  1.0364875e+04 1.06e-12 1.14e-02  -3.8 1.45e+03  -5.0 1.00e+00 1.34e-02f  2
  92  1.0353989e+04 9.12e-13 3.65e-03  -3.8 1.31e+02  -4.6 1.00e+00 1.22e-01f  2
  93  1.0341467e+04 1.13e-12 9.93e-03  -3.8 3.53e+02  -5.1 1.00e+00 5.69e-02f  2
  94  9.9658173e+03 3.90e-12 5.33e-02  -3.8 8.56e+02  -5.5 1.00e+00 1.00e+00f  1
  95  9.7938608e+03 3.61e-12 1.15e-02  -3.8 1.78e+03  -6.0 1.00e+00 3.56e-01f  1
  96  9.6343593e+03 3.65e-12 4.10e-03  -3.8 3.82e+03  -6.5 1.00e+00 2.22e-01f  1
  97  9.4308665e+03 4.26e-12 4.23e-03  -3.8 6.64e+03  -7.0 9.08e-01 3.33e-01f  1
  98  9.4301904e+03 4.33e-12 6.16e-03  -3.8 1.93e+03  -7.4 1.00e+00 2.03e-03f  1
  99  9.2009514e+03 3.86e-12 2.16e-02  -3.8 5.26e+03  -7.9 1.00e+00 1.00e+00f  1
iter    objective    inf_pr   inf_du lg(mu)  ||d||  lg(rg) alpha_du alpha_pr  ls
 100  9.1527926e+03 3.16e-12 8.37e-03  -3.8 1.75e+04    -  1.00e+00 3.16e-01f  2
 101  9.0719435e+03 2.35e-12 8.74e-04  -3.8 2.31e+03    -  1.00e+00 1.00e+00f  1
 102  9.0551077e+03 1.41e-12 1.58e-02  -5.7 2.30e+03  -8.4 8.03e-01 4.18e-01f  1
 103  9.0475441e+03 1.01e-12 5.54e-02  -5.7 2.42e+03    -  9.98e-01 2.66e-01f  1
 104  9.0392077e+03 5.68e-13 4.09e-02  -5.7 2.29e+03  -8.9 1.00e+00 4.59e-01f  1
 105  9.0314119e+03 2.89e-13 1.50e-02  -5.7 2.33e+03  -9.4 1.00e+00 1.00e+00f  1
Reallocating memory for MA57: lfact (172357)
 106  9.0302007e+03 5.12e-13 2.84e-03  -5.7 1.87e+03  -9.8 1.00e+00 1.00e+00f  1
 107  9.0301283e+03 4.89e-13 5.68e-04  -5.7 4.84e+02  -8.5 1.00e+00 1.00e+00f  1
 108  9.0301093e+03 2.71e-13 7.90e-06  -5.7 3.91e+02  -9.0 1.00e+00 1.00e+00f  1
 109  9.0300879e+03 4.55e-13 9.29e-04  -8.6 2.62e+00  -6.7 1.00e+00 8.96e-01f  1
Reallocating memory for MA57: lfact (181629)
iter    objective    inf_pr   inf_du lg(mu)  ||d||  lg(rg) alpha_du alpha_pr  ls
 110  9.0300839e+03 6.47e-13 6.08e-04  -8.6 9.79e-01  -6.3 1.00e+00 8.62e-01f  1
 111  9.0300834e+03 2.77e-13 2.33e-04  -8.6 3.67e-01  -5.9 1.00e+00 7.82e-01f  1
Reallocating memory for MA57: lfact (192683)
 112  9.0300819e+03 8.66e-12 1.46e-04  -8.6 1.66e+02    -  1.00e+00 8.13e-01f  1
Reallocating memory for MA57: lfact (210959)
 113  9.0300818e+03 3.69e-13 5.07e-03  -8.6 3.48e+01    -  8.65e-02 9.80e-01f  1
 114  9.0300818e+03 7.17e-13 1.83e-08  -8.6 5.45e-03  -6.4 1.00e+00 1.00e+00f  1
 115  9.0300818e+03 1.77e-13 2.59e-08  -9.0 1.60e-02  -6.8 1.00e+00 1.00e+00h  1
 116  9.0300818e+03 2.66e-13 2.28e-09  -9.0 7.51e-04  -5.5 1.00e+00 1.00e+00h  1

Number of Iterations....: 116

                                   (scaled)                 (unscaled)
Objective...............:   2.6140668346237794e+02    9.0300817778831206e+03
Dual infeasibility......:   2.2785391613991787e-09    7.8710286550516041e-08
Constraint violation....:   2.6598145067453476e-13    2.6598145067453476e-13
Complementarity.........:   9.0974201213100737e-10    3.1426299655040217e-08
Overall NLP error.......:   2.2785391613991787e-09    7.8710286550516041e-08


Number of objective function evaluations             = 173
Number of objective gradient evaluations             = 117
Number of equality constraint evaluations            = 173
Number of inequality constraint evaluations          = 0
Number of equality constraint Jacobian evaluations   = 117
Number of inequality constraint Jacobian evaluations = 0
Number of Lagrangian Hessian evaluations             = 116
Total CPU secs in IPOPT (w/o function evaluations)   =      1.815
Total CPU secs in NLP function evaluations           =      0.047

EXIT: Optimal Solution Found.

************************ CUTEst statistics ************************


 Package used            :  IPOPT
 Problem                 :  STEENBRD  
 # variables             =             468
 # constraints           =             108
 # objective functions   =        0.2910000E+03
 # objective gradients   =        0.1180000E+03
 # objective Hessians    =        0.1170000E+03
 # Hessian-vector prdct  =        0.0000000E+00
 # constraints functions =        0.2920000E+03
 # constraints gradients =        0.1190000E+03
 # constraints Hessians  =        0.1170000E+03
 Exit code               =               0
 Final f                 =        9.0300817778831206D+03
 Bounds feasibility      =        1.9993723071820568D-05
 Set up time             =            0.03 seconds
 Solve time              =            3.38 seconds


******************************************************************

